
Route #1: 1 24 52 43 69 67 56 42 
Route #2: 72 21 58 47 65 49 63 37 75 32 54 31 
Route #3: 2 76 73 7 71 22 57 30 
Route #4: 17 62 19 74 28 50 61 55 41 66 60 
Route #5: 38 51 45 34 46 33 13 9 36 10 
Route #6: 40 64 23 77 44 53 68 11 
Route #7: 20 59 35 48 4 14 
Route #8: 27 70 29 5 8 
Route #9: 12 15 3 25 16 18 
Route #10: 6 39 26 
cost 1920.22
total time is 9